500
1000
300
300
300
300
298
298
298
295
295
295
294
294
293
292
292
292
292
292
291
291
290
290
290
290
290
290
290
288
288
288
288
287
287
287
287
286
286
286
286
286
285
285
285
285
285
285
285
284
284
284
284
283
283
283
283
282
281
281
281
281
281
281
280
280
280
280
280
280
279
279
279
279
279
278
277
276
276
276
275
275
274
274
274
274
274
273
273
273
272
271
271
271
271
270
270
270
270
270
269
269
269
268
268
268
267
267
267
267
266
266
266
264
263
263
263
263
262
262
261
261
261
260
259
259
257
257
257
257
257
257
257
256
255
254
254
254
253
253
252
251
251
250
250
249
249
248
247
247
247
246
246
245
244
243
243
242
240
240
240
240
239
239
239
238
238
237
236
236
236
235
235
234
234
234
234
233
232
232
232
232
232
231
231
231
230
230
230
229
227
227
227
227
226
225
225
224
224
223
223
222
221
220
220
220
220
220
220
219
219
219
218
217
217
217
217
217
216
216
215
214
214
214
214
213
212
212
212
212
212
212
211
211
210
210
210
210
210
210
209
208
208
207
207
206
206
205
205
204
204
204
204
204
203
203
203
203
203
202
202
202
202
201
201
200
200
199
199
199
198
198
198
197
197
195
195
195
195
195
194
194
193
193
193
192
192
192
191
191
191
190
190
190
189
189
188
188
188
188
187
187
186
186
185
185
185
185
185
184
184
184
183
183
183
182
182
182
181
180
180
180
180
179
179
179
178
178
178
177
175
175
174
174
174
173
172
172
172
170
170
170
169
168
167
166
166
166
166
165
165
164
164
164
164
164
163
163
163
162
162
162
161
161
161
161
161
160
160
160
159
159
157
157
157
155
154
154
153
153
153
152
152
152
152
151
151
151
151
149
149
148
146
146
146
145
144
144
144
144
143
142
142
142
142
141
140
140
139
138
138
138
138
137
137
136
136
136
136
135
135
135
134
134
134
133
132
132
132
132
132
131
131
130
130
130
130
129
127
126
125
124
124
123
123
123
122
122
122
122
121
121
121
121
121
121
117
117
117
116
116
116
115
115
115
114
114
114
114
113
113
112
112
112
112
111
111
110
110
109
108
108
107
106
106
106
105
105
105
105
105
105
105
104
104
104
103
103
102
102
102
102
